18568
1 0 1 0 0 1 1 0 0 0 0 1 0 0 1 1 0 1 0 0 1 0 0 0 0 0 0 0 0 0 
6 17 6 2 6 5 2 11 2 0 5 20 6 20 2 20 11 17 5 11 2 17 5 2 5 20 2 0 5 5 5 11 6 17 20 20 0 15 2 14 17 14 15 6 15 14 6 20 11 14 5 2 14 0 6 20 14 5 17 14 0 11 20 17 11 11 5 0 5 5 6 6 11 17 15 20 5 20 2 5 20 17 6 0 2 17 2 17 20 5 2 15 17 17 17 2 2 6 5 6 6 17 14 11 2 11 17 17 14 20 14 2 2 11 11 5 0 15 11 11 11 6 11 20 6 15 5 5 17 15 0 17 0 6 6 14 17 15 20 17 11 20 20 14 20 11 11 11 2 11 